824389
61,30,59,31,73,69,0,47,36,12,62,67,98,79,37,35,71,54,43,90,52,7,88,84,2,4,63,1,26,66,60,57,81,15,14,82,34,41,96,49,87,75,86,44,85,80,13,38,91,83,21,42,23,51,64,53,97,22,10,27,45,33,70,89,58,18,11,16,25,93,39,28,78,50,77,24,72,6,3,65,94,46,56,32,8,19,20,95,29,76,9,55,17,40,68,74,5,48,92
